000 000 000 000 -99 000 000 002 004 002 000 000 000 000 000 000 000 000 000 -99 -99 000 -99 000 000 000 -99 -99 -99 -99 000
000 000 000 000 -99 000 000 003 006 004 000 000 000 000 000 000 -99 000 000 -99 -99 000 -99 -99 000 000 -99 -99 -99 -99 000
-99 000 000 -99 -99 -99 000 002 002 001 000 000 000 -99 000 000 -99 -99 -99 -99 -99 000 -99 -99 000 000 000 000 000 -99 000
000 000 000 000 000 000 000 000 000 001 000 -99 -99 -99 000 000 -99 -99 -99 -99 000 000 000 000 000 000 000 -99 000 000 001
000 000 000 000 000 000 000 000 000 000 000 -99 000 -99 -99 000 -99 -99 -99 -99 000 000 000 000 000 000 000 -99 -99 001 001
000 000 000 000 000 000 000 000 000 000 000 -99 000 -99 -99 000 000 -99 -99 -99 000 000 000 000 000 000 000 -99 -99 001 001
000 000 000 000 000 000 000 000 000 000 -99 -99 -99 000 000 000 000 -99 -99 -99 000 000 000 000 000 000 000 -99 -99 000 000
000 000 000 000 000 000 000 000 000 000 -99 -99 000 000 000 000 000 000 -99 -99 000 000 -99 000 000 000 000 -99 -99 000 000
000 000 000 000 000 000 000 000 000 000 -99 000 000 000 000 000 000 -99 -99 -99 000 -99 -99 000 000 000 000 000 -99 -99 000
000 000 000 000 000 000 000 000 000 000 000 000 000 000 000 000 -99 000 -99 000 000 000 -99 -99 000 000 000 000 -99 -99 -99
000 000 000 000 000 000 -99 000 000 000 000 000 000 000 001 000 -99 -99 -99 000 000 000 -99 -99 000 000 000 000 000 -99 -99
000 000 000 000 000 000 000 000 000 000 000 000 000 000 000 000 -99 000 000 000 000 000 -99 000 000 -99 000 000 000 000 -99
000 000 000 000 000 000 000 000 000 000 000 000 000 000 000 000 000 000 000 000 000 000 -99 000 000 000 -99 -99 000 000 -99
000 000 000 000 000 000 000 000 -99 000 000 000 000 000 000 -99 000 -99 000 000 000 000 -99 000 000 000 -99 000 000 000 -99
000 000 000 000 000 000 000 000 000 000 000 000 000 000 000 -99 -99 -99 -99 -99 000 000 -99 000 000 000 -99 000 000 -99 -99
000 000 000 000 000 000 000 000 000 000 -99 -99 000 000 000 -99 -99 000 -99 -99 -99 -99 -99 000 000 000 000 000 000 000 -99
000 000 000 000 000 000 000 000 000 000 -99 -99 -99 000 000 -99 000 000 -99 -99 -99 -99 -99 000 000 000 000 000 -99 -99 -99
000 000 000 000 000 000 000 000 000 000 000 000 -99 000 000 -99 000 000 -99 -99 -99 -99 000 -99 000 -99 -99 -99 -99 000 000
000 000 000 000 000 000 000 000 000 000 000 000 -99 -99 -99 000 000 000 -99 -99 -99 000 000 -99 000 -99 -99 -99 -99 000 000
000 000 000 000 000 000 000 000 000 000 000 000 -99 -99 -99 000 000 000 000 000 -99 000 000 -99 -99 -99 -99 -99 -99 -99 -99
000 000 000 000 000 000 000 000 000 000 000 000 -99 -99 -99 000 000 000 -99 -99 000 000 000 -99 -99 -99 -99 -99 -99 -99 -99
000 000 000 000 000 000 000 000 000 000 -99 000 000 000 000 000 000 000 000 -99 000 000 000 -99 -99 -99 -99 -99 -99 -99 -99
000 000 000 000 000 000 000 000 000 000 -99 000 000 000 000 -99 000 000 000 -99 000 000 000 -99 -99 -99 -99 -99 -99 -99 -99
000 000 000 000 000 000 000 000 000 000 -99 -99 000 000 000 000 000 000 000 000 000 000 000 -99 -99 -99 -99 -99 -99 -99 -99
000 000 000 000 000 000 000 000 000 000 -99 -99 000 000 000 000 000 000 000 000 000 000 000 -99 -99 -99 -99 -99 -99 -99 -99
000 000 000 000 000 000 000 000 000 000 000 -99 -99 000 000 000 000 000 000 000 000 -99 -99 -99 -99 -99 -99 -99 -99 -99 000
000 000 000 000 000 000 000 000 000 000 000 -99 -99 000 000 000 000 000 000 000 000 000 -99 -99 -99 -99 -99 -99 -99 000 000
000 000 000 000 000 000 000 000 000 000 -99 -99 000 000 000 000 000 000 000 000 000 000 -99 -99 -99 -99 -99 -99 -99 000 000
000 000 000 000 000 000 000 000 000 000 -99 -99 -99 000 000 000 000 000 -99 -99 -99 000 -99 -99 -99 -99 -99 -99 -99 000 000
000 000 000 000 000 000 000 000 000 000 -99 -99 -99 000 000 -99 000 000 -99 -99 -99 000 -99 -99 -99 -99 -99 -99 -99 -99 -99
000 000 000 000 000 000 000 000 000 000 -99 -99 -99 000 000 -99 000 000 000 -99 -99 000 -99 -99 -99 -99 -99 -99 -99 -99 -99
000 000 000 000 000 000 000 000 000 000 -99 -99 000 000 000 -99 000 000 000 -99 000 000 -99 000 000 000 -99 -99 -99 -99 -99
000 000 000 000 000 000 000 000 000 000 -99 -99 000 000 000 -99 000 000 000 000 000 000 000 000 000 000 -99 000 -99 -99 -99
-99 000 000 000 000 000 000 000 000 000 -99 000 000 000 000 000 000 000 000 000 000 000 000 000 000 000 000 000 000 -99 -99
000 000 000 000 000 000 000 000 000 000 000 000 000 000 000 000 000 000 000 000 000 000 000 000 000 000 000 000 000 -99 -99
000 000 000 000 000 000 000 000 000 000 000 000 000 000 000 000 000 000 000 000 000 000 000 000 000 000 000 000 000 -99 -99
000 000 000 000 000 000 000 000 000 000 000 000 000 000 000 000 000 000 000 000 000 000 000 000 000 000 000 000 000 -99 -99
000 000 000 000 000 000 -99 000 000 000 000 000 000 000 000 000 000 000 000 000 000 000 000 000 000 000 000 000 -99 000 -99
000 -99 -99 -99 -99 -99 000 000 -99 -99 000 000 000 000 000 000 000 000 000 000 000 000 000 000 000 000 000 000 000 000 -99
000 -99 000 000 -99 -99 -99 -99 -99 -99 -99 000 000 000 000 000 000 000 000 000 000 000 000 000 000 000 000 000 000 000 000
-99 -99 -99 000 -99 -99 -99 -99 -99 -99 -99 000 000 000 000 000 000 000 000 000 000 000 000 000 000 000 000 000 000 000 000
-99 000 -99 000 -99 -99 -99 -99 -99 -99 000 000 000 000 000 000 000 000 000 000 000 000 000 000 000 000 000 000 000 000 000
000 000 -99 -99 -99 -99 -99 -99 -99 -99 -99 000 -99 -99 000 000 000 000 000 000 000 000 000 000 000 000 000 000 001 001 000
000 -99 -99 -99 -99 -99 000 000 -99 -99 -99 -99 000 -99 000 000 000 000 000 000 000 000 000 000 000 000 000 000 000 001 000
000 000 -99 -99 -99 -99 -99 000 -99 -99 000 000 000 000 000 000 000 000 000 000 000 000 000 000 000 000 000 000 001 001 001
000 000 000 000 -99 -99 -99 -99 -99 -99 000 000 000 000 000 000 000 000 000 000 000 000 000 000 000 000 000 000 -99 001 001
005 004 000 000 -99 -99 -99 -99 -99 000 000 000 000 000 000 000 000 000 000 000 000 000 000 000 000 000 000 001 002 000 001
009 008 002 000 000 -99 -99 -99 000 000 000 000 000 000 000 000 000 000 000 -99 000 000 000 000 000 000 000 001 001 000 000
012 008 002 000 000 -99 -99 -99 000 000 000 000 000 000 000 000 000 000 000 000 -99 000 000 000 000 000 000 001 001 001 000
005 004 001 000 000 -99 -99 -99 000 000 000 000 000 000 000 000 000 000 000 000 -99 000 -99 -99 000 000 000 001 000 000 000
004 001 000 000 -99 -99 -99 000 000 -99 -99 -99 000 000 000 000 000 000 000 000 -99 -99 -99 000 000 000 000 000 000 000 000
007 004 000 000 000 -99 -99 -99 000 -99 -99 -99 000 000 000 000 000 000 000 000 -99 -99 -99 000 000 000 000 000 000 000 000
017 005 001 000 000 -99 -99 -99 -99 -99 -99 -99 000 000 000 000 000 000 000 000 -99 -99 -99 000 000 000 000 000 000 000 -99
033 003 001 000 000 -99 -99 -99 -99 -99 -99 -99 000 -99 -99 000 000 000 000 -99 -99 -99 -99 000 000 -99 000 000 -99 -99 -99
003 002 001 000 000 -99 -99 -99 -99 -99 -99 -99 -99 -99 -99 000 000 000 000 -99 -99 -99 -99 -99 -99 -99 -99 -99 -99 -99 -99
